c Random generated cnf formula, satisfiable: true
p cnf 10 50
8 -6 -3 0
2 8 -1 0
4 -6 -8 0
-2 7 -5 0
-7 6 -10 0
-8 -9 4 0
-1 3 8 0
-8 1 6 0
-3 2 -8 0
8 -4 3 0
7 10 3 0
-10 1 3 0
10 9 -5 0
-8 4 5 0
-1 2 -6 0
-4 -2 -7 0
8 -2 10 0
-6 -2 1 0
-10 -8 3 0
-8 5 -2 0
-5 9 -7 0
-5 -8 6 0
-7 10 -8 0
-3 -8 10 0
2 1 7 0
-9 -6 -7 0
5 -7 9 0
6 -4 3 0
-9 -7 5 0
-3 6 -1 0
-5 -10 -6 0
8 -4 -7 0
3 -8 1 0
-10 -6 -5 0
9 8 -1 0
10 2 -8 0
-9 5 -2 0
-6 -10 7 0
-2 9 4 0
-1 -6 -3 0
-1 4 -3 0
-3 4 6 0
-10 -4 -6 0
-9 7 -6 0
-5 7 -8 0
-9 -5 4 0
6 1 -8 0
8 9 -1 0
4 -2 -3 0
7 6 -1 0
